2 1 3 1 6 5 5 2 9 7 8 9 4 2 5 7 1 1 7 7
4 4 6 2 7 3 2 5 2 9 5 6 9 3 4 3 4 2 3 9
4 4 6 5 5 4 5 4 4 5 6 4 6 4 6 4 4 5 4 5
3 3 5 4 7 5 8 6 3 3 3 5 4 5 8 1 5 9 7 6
2 8 3 6 2 4 4 2 8 6 6 5 3 8 3 6 8 7 4 4
6 6 4 4 4 5 5 4 6 4 4 6 4 6 4 4 5 4 5 5
8 7 4 4 4 4 8 3 4 7 4 3 5 3 6 3 2 8 7 3
3 3 6 7 5 3 7 3 7 5 3 6 6 4 7 5 4 4 3 7
4 5 2 5 6 8 8 2 2 4 7 2 3 2 7 4 8 6 8 8
9 6 8 5 8 2 6 2 7 5 9 7 6 2 2 6 3 9 9 3
4 6 6 6 5 6 4 4 5 4 5 4 5 6 5 6 4 6 5 6
5 4 5 6 6 5 4 5 6 4 6 6 4 5 5 4 5 6 5 6
2 5 3 9 9 6 6 6 9 2 5 8 1 4 7 1 5 3 4 9
2 6 4 1 3 9 6 3 8 8 6 3 9 7 3 5 7 2 7 4
6 6 5 4 5 5 6 5 5 5 4 4 4 5 5 5 4 6 5 4
5 6 1 10 6 4 8 3 5 6 8 9 5 6 7 10 9 7 1 3
8 3 9 8 3 4 6 9 6 8 3 6 3 3 3 8 6 8 6 7
9 3 5 2 5 1 6 1 1 3 6 7 2 1 1 7 7 3 3 7
5 4 5 6 6 6 5 6 4 6 4 6 5 5 4 4 4 5 6 5
3 6 1 2 1 7 4 4 2 1 6 9 2 3 5 2 5 10 5 5